N = 390;
M = 964;
Edge_Start = [1, 2, 3, 4, 5, 6, 7, 7, 8, 9, 10, 11, 11, 12, 13, 13, 14, 15, 15, 16, 17, 17, 18, 19, 21, 21, 22, 23, 24, 25, 26, 27, 28, 29, 29, 30, 32, 33, 33, 34, 35, 35, 36, 37, 37, 38, 39, 39, 40, 41, 41, 42, 43, 43, 44, 45, 45, 46, 47, 47, 48, 49, 49, 50, 51, 52, 53, 54, 55, 56, 56, 57, 58, 58, 59, 60, 61, 62, 62, 64, 64, 65, 66, 66, 67, 68, 68, 69, 70, 70, 71, 72, 72, 73, 74, 75, 76, 76, 77, 78, 79, 80, 80, 81, 82, 82, 85, 86, 87, 88, 89, 89, 90, 91, 91, 92, 93, 93, 94, 95, 95, 96, 97, 97, 99, 99, 100, 101, 101, 102, 103, 103, 104, 105, 105, 106, 107, 107, 108, 109, 109, 110, 111, 112, 112, 113, 114, 114, 116, 116, 117, 118, 118, 119, 120, 120, 121, 122, 122, 124, 124, 125, 126, 127, 128, 128, 129, 131, 132, 132, 133, 134, 134, 135, 136, 137, 138, 138, 140, 142, 143, 143, 144, 145, 145, 146, 147, 148, 149, 149, 150, 151, 151, 152, 153, 153, 154, 155, 155, 157, 157, 158, 159, 159, 160, 161, 161, 163, 163, 164, 165, 165, 166, 167, 168, 168, 169, 170, 170, 171, 172, 172, 174, 174, 175, 176, 177, 178, 179, 180, 182, 182, 184, 184, 185, 186, 187, 188, 189, 190, 190, 191, 192, 193, 194, 194, 196, 197, 198, 199, 199, 200, 201, 201, 203, 203, 204, 205, 206, 207, 207, 208, 209, 209, 210, 211, 212, 213, 213, 214, 215, 216, 217, 217, 218, 219, 219, 220, 221, 221, 222, 223, 224, 224, 225, 226, 226, 227, 228, 228, 229, 230, 230, 231, 232, 233, 234, 234, 235, 236, 236, 237, 238, 238, 239, 240, 241, 242, 243, 244, 244, 245, 246, 246, 247, 248, 248, 249, 250, 252, 253, 254, 256, 257, 258, 259, 259, 260, 261, 261, 263, 263, 264, 265, 265, 266, 267, 268, 269, 269, 270, 271, 271, 272, 273, 273, 274, 275, 276, 277, 277, 278, 279, 280, 280, 281, 282, 282, 283, 284, 286, 286, 287, 288, 288, 289, 290, 290, 291, 292, 293, 294, 294, 295, 296, 296, 297, 299, 301, 302, 302, 303, 304, 305, 306, 306, 309, 309, 310, 311, 311, 312, 313, 313, 314, 315, 315, 316, 317, 317, 318, 319, 319, 320, 321, 321, 322, 323, 323, 324, 325, 325, 326, 327, 327, 328, 329, 330, 331, 332, 333, 333, 334, 335, 336, 336, 337, 338, 338, 339, 340, 340, 341, 342, 342, 343, 344, 344, 345, 347, 348, 348, 349, 350, 350, 351, 352, 352, 353, 354, 354, 355, 356, 357, 358, 358, 359, 360, 360, 362, 362, 364, 365, 366, 367, 368, 370, 371, 373, 374, 375, 376, 377, 378, 379, 380, 382, 384, 385, 386, 388, 389, 2, 3, 30, 5, 6, 7, 8, 34, 9, 10, 11, 12, 38, 13, 14, 40, 15, 16, 42, 17, 18, 44, 19, 20, 22, 48, 23, 24, 25, 26, 27, 54, 29, 30, 57, 31, 33, 34, 61, 35, 36, 63, 37, 38, 65, 39, 40, 67, 41, 42, 69, 43, 44, 71, 45, 46, 73, 47, 48, 75, 49, 50, 77, 51, 52, 53, 54, 55, 83, 57, 84, 58, 59, 86, 60, 88, 62, 63, 90, 65, 92, 66, 67, 94, 68, 69, 96, 70, 71, 98, 72, 73, 100, 74, 75, 76, 77, 104, 78, 106, 80, 81, 108, 82, 83, 110, 86, 87, 115, 89, 90, 117, 91, 92, 119, 93, 94, 121, 95, 96, 123, 97, 98, 125, 100, 127, 101, 102, 129, 103, 104, 131, 105, 106, 133, 107, 108, 135, 109, 110, 137, 111, 139, 113, 140, 114, 115, 142, 117, 144, 118, 119, 146, 120, 121, 148, 122, 123, 150, 125, 152, 126, 127, 128, 129, 156, 130, 132, 133, 160, 134, 135, 162, 136, 137, 138, 139, 166, 141, 143, 144, 171, 145, 146, 173, 147, 148, 149, 150, 177, 151, 152, 179, 153, 154, 181, 155, 156, 183, 158, 185, 159, 160, 187, 161, 162, 189, 164, 191, 165, 166, 193, 167, 195, 169, 196, 170, 171, 198, 172, 173, 200, 175, 202, 176, 177, 178, 206, 180, 181, 183, 210, 185, 212, 186, 214, 188, 189, 190, 191, 218, 192, 193, 194, 195, 222, 197, 225, 199, 200, 227, 201, 202, 229, 204, 231, 205, 233, 207, 208, 235, 209, 210, 237, 211, 239, 213, 214, 241, 215, 216, 217, 218, 245, 219, 220, 247, 221, 222, 249, 223, 251, 225, 252, 226, 227, 254, 228, 229, 256, 230, 231, 258, 232, 260, 234, 235, 262, 236, 237, 264, 238, 239, 266, 240, 268, 242, 270, 244, 245, 272, 246, 247, 274, 248, 249, 276, 250, 278, 253, 254, 255, 257, 258, 259, 260, 287, 261, 262, 289, 264, 291, 265, 266, 293, 267, 268, 269, 270, 297, 271, 272, 299, 273, 274, 301, 275, 276, 277, 278, 305, 279, 307, 281, 308, 282, 283, 310, 284, 285, 287, 314, 288, 289, 316, 290, 291, 318, 292, 293, 294, 295, 322, 296, 297, 324, 298, 300, 302, 303, 330, 304, 332, 306, 307, 334, 310, 337, 311, 312, 339, 313, 314, 341, 315, 316, 343, 317, 318, 345, 319, 320, 347, 321, 322, 349, 323, 324, 351, 325, 326, 353, 327, 328, 355, 329, 357, 331, 359, 333, 334, 361, 335, 363, 337, 364, 338, 339, 366, 340, 341, 368, 342, 343, 370, 344, 345, 372, 346, 348, 349, 376, 350, 351, 378, 352, 353, 380, 354, 355, 382, 356, 357, 358, 359, 386, 360, 361, 388, 363, 390, 365, 366, 367, 368, 369, 371, 372, 374, 375, 376, 377, 378, 379, 380, 381, 383, 385, 386, 387, 389, 390];
Edge_End = [2, 3, 30, 5, 6, 7, 8, 34, 9, 10, 11, 12, 38, 13, 14, 40, 15, 16, 42, 17, 18, 44, 19, 20, 22, 48, 23, 24, 25, 26, 27, 54, 29, 30, 57, 31, 33, 34, 61, 35, 36, 63, 37, 38, 65, 39, 40, 67, 41, 42, 69, 43, 44, 71, 45, 46, 73, 47, 48, 75, 49, 50, 77, 51, 52, 53, 54, 55, 83, 57, 84, 58, 59, 86, 60, 88, 62, 63, 90, 65, 92, 66, 67, 94, 68, 69, 96, 70, 71, 98, 72, 73, 100, 74, 75, 76, 77, 104, 78, 106, 80, 81, 108, 82, 83, 110, 86, 87, 115, 89, 90, 117, 91, 92, 119, 93, 94, 121, 95, 96, 123, 97, 98, 125, 100, 127, 101, 102, 129, 103, 104, 131, 105, 106, 133, 107, 108, 135, 109, 110, 137, 111, 139, 113, 140, 114, 115, 142, 117, 144, 118, 119, 146, 120, 121, 148, 122, 123, 150, 125, 152, 126, 127, 128, 129, 156, 130, 132, 133, 160, 134, 135, 162, 136, 137, 138, 139, 166, 141, 143, 144, 171, 145, 146, 173, 147, 148, 149, 150, 177, 151, 152, 179, 153, 154, 181, 155, 156, 183, 158, 185, 159, 160, 187, 161, 162, 189, 164, 191, 165, 166, 193, 167, 195, 169, 196, 170, 171, 198, 172, 173, 200, 175, 202, 176, 177, 178, 206, 180, 181, 183, 210, 185, 212, 186, 214, 188, 189, 190, 191, 218, 192, 193, 194, 195, 222, 197, 225, 199, 200, 227, 201, 202, 229, 204, 231, 205, 233, 207, 208, 235, 209, 210, 237, 211, 239, 213, 214, 241, 215, 216, 217, 218, 245, 219, 220, 247, 221, 222, 249, 223, 251, 225, 252, 226, 227, 254, 228, 229, 256, 230, 231, 258, 232, 260, 234, 235, 262, 236, 237, 264, 238, 239, 266, 240, 268, 242, 270, 244, 245, 272, 246, 247, 274, 248, 249, 276, 250, 278, 253, 254, 255, 257, 258, 259, 260, 287, 261, 262, 289, 264, 291, 265, 266, 293, 267, 268, 269, 270, 297, 271, 272, 299, 273, 274, 301, 275, 276, 277, 278, 305, 279, 307, 281, 308, 282, 283, 310, 284, 285, 287, 314, 288, 289, 316, 290, 291, 318, 292, 293, 294, 295, 322, 296, 297, 324, 298, 300, 302, 303, 330, 304, 332, 306, 307, 334, 310, 337, 311, 312, 339, 313, 314, 341, 315, 316, 343, 317, 318, 345, 319, 320, 347, 321, 322, 349, 323, 324, 351, 325, 326, 353, 327, 328, 355, 329, 357, 331, 359, 333, 334, 361, 335, 363, 337, 364, 338, 339, 366, 340, 341, 368, 342, 343, 370, 344, 345, 372, 346, 348, 349, 376, 350, 351, 378, 352, 353, 380, 354, 355, 382, 356, 357, 358, 359, 386, 360, 361, 388, 363, 390, 365, 366, 367, 368, 369, 371, 372, 374, 375, 376, 377, 378, 379, 380, 381, 383, 385, 386, 387, 389, 390, 1, 2, 3, 4, 5, 6, 7, 7, 8, 9, 10, 11, 11, 12, 13, 13, 14, 15, 15, 16, 17, 17, 18, 19, 21, 21, 22, 23, 24, 25, 26, 27, 28, 29, 29, 30, 32, 33, 33, 34, 35, 35, 36, 37, 37, 38, 39, 39, 40, 41, 41, 42, 43, 43, 44, 45, 45, 46, 47, 47, 48, 49, 49, 50, 51, 52, 53, 54, 55, 56, 56, 57, 58, 58, 59, 60, 61, 62, 62, 64, 64, 65, 66, 66, 67, 68, 68, 69, 70, 70, 71, 72, 72, 73, 74, 75, 76, 76, 77, 78, 79, 80, 80, 81, 82, 82, 85, 86, 87, 88, 89, 89, 90, 91, 91, 92, 93, 93, 94, 95, 95, 96, 97, 97, 99, 99, 100, 101, 101, 102, 103, 103, 104, 105, 105, 106, 107, 107, 108, 109, 109, 110, 111, 112, 112, 113, 114, 114, 116, 116, 117, 118, 118, 119, 120, 120, 121, 122, 122, 124, 124, 125, 126, 127, 128, 128, 129, 131, 132, 132, 133, 134, 134, 135, 136, 137, 138, 138, 140, 142, 143, 143, 144, 145, 145, 146, 147, 148, 149, 149, 150, 151, 151, 152, 153, 153, 154, 155, 155, 157, 157, 158, 159, 159, 160, 161, 161, 163, 163, 164, 165, 165, 166, 167, 168, 168, 169, 170, 170, 171, 172, 172, 174, 174, 175, 176, 177, 178, 179, 180, 182, 182, 184, 184, 185, 186, 187, 188, 189, 190, 190, 191, 192, 193, 194, 194, 196, 197, 198, 199, 199, 200, 201, 201, 203, 203, 204, 205, 206, 207, 207, 208, 209, 209, 210, 211, 212, 213, 213, 214, 215, 216, 217, 217, 218, 219, 219, 220, 221, 221, 222, 223, 224, 224, 225, 226, 226, 227, 228, 228, 229, 230, 230, 231, 232, 233, 234, 234, 235, 236, 236, 237, 238, 238, 239, 240, 241, 242, 243, 244, 244, 245, 246, 246, 247, 248, 248, 249, 250, 252, 253, 254, 256, 257, 258, 259, 259, 260, 261, 261, 263, 263, 264, 265, 265, 266, 267, 268, 269, 269, 270, 271, 271, 272, 273, 273, 274, 275, 276, 277, 277, 278, 279, 280, 280, 281, 282, 282, 283, 284, 286, 286, 287, 288, 288, 289, 290, 290, 291, 292, 293, 294, 294, 295, 296, 296, 297, 299, 301, 302, 302, 303, 304, 305, 306, 306, 309, 309, 310, 311, 311, 312, 313, 313, 314, 315, 315, 316, 317, 317, 318, 319, 319, 320, 321, 321, 322, 323, 323, 324, 325, 325, 326, 327, 327, 328, 329, 330, 331, 332, 333, 333, 334, 335, 336, 336, 337, 338, 338, 339, 340, 340, 341, 342, 342, 343, 344, 344, 345, 347, 348, 348, 349, 350, 350, 351, 352, 352, 353, 354, 354, 355, 356, 357, 358, 358, 359, 360, 360, 362, 362, 364, 365, 366, 367, 368, 370, 371, 373, 374, 375, 376, 377, 378, 379, 380, 382, 384, 385, 386, 388, 389];
L = [1, 1, 1, 1, 1, 1, 1, 1, 1, 1, 1, 1, 1, 1, 1, 1, 1, 1, 1, 1, 1, 1, 1, 1, 1, 1, 1, 1, 1, 1, 1, 1, 1, 1, 1, 1, 1, 1, 1, 1, 1, 1, 1, 1, 1, 1, 1, 1, 1, 1, 1, 1, 1, 1, 1, 1, 1, 1, 1, 1, 1, 1, 1, 1, 1, 1, 1, 1, 1, 1, 1, 1, 1, 1, 1, 1, 1, 1, 1, 1, 1, 1, 1, 1, 1, 1, 1, 1, 1, 1, 1, 1, 1, 1, 1, 1, 1, 1, 1, 1, 1, 1, 1, 1, 1, 1, 1, 1, 1, 1, 1, 1, 1, 1, 1, 1, 1, 1, 1, 1, 1, 1, 1, 1, 1, 1, 1, 1, 1, 1, 1, 1, 1, 1, 1, 1, 1, 1, 1, 1, 1, 1, 1, 1, 1, 1, 1, 1, 1, 1, 1, 1, 1, 1, 1, 1, 1, 1, 1, 1, 1, 1, 1, 1, 1, 1, 1, 1, 1, 1, 1, 1, 1, 1, 1, 1, 1, 1, 1, 1, 1, 1, 1, 1, 1, 1, 1, 1, 1, 1, 1, 1, 1, 1, 1, 1, 1, 1, 1, 1, 1, 1, 1, 1, 1, 1, 1, 1, 1, 1, 1, 1, 1, 1, 1, 1, 1, 1, 1, 1, 1, 1, 1, 1, 1, 1, 1, 1, 1, 1, 1, 1, 1, 1, 1, 1, 1, 1, 1, 1, 1, 1, 1, 1, 1, 1, 1, 1, 1, 1, 1, 1, 1, 1, 1, 1, 1, 1, 1, 1, 1, 1, 1, 1, 1, 1, 1, 1, 1, 1, 1, 1, 1, 1, 1, 1, 1, 1, 1, 1, 1, 1, 1, 1, 1, 1, 1, 1, 1, 1, 1, 1, 1, 1, 1, 1, 1, 1, 1, 1, 1, 1, 1, 1, 1, 1, 1, 1, 1, 1, 1, 1, 1, 1, 1, 1, 1, 1, 1, 1, 1, 1, 1, 1, 1, 1, 1, 1, 1, 1, 1, 1, 1, 1, 1, 1, 1, 1, 1, 1, 1, 1, 1, 1, 1, 1, 1, 1, 1, 1, 1, 1, 1, 1, 1, 1, 1, 1, 1, 1, 1, 1, 1, 1, 1, 1, 1, 1, 1, 1, 1, 1, 1, 1, 1, 1, 1, 1, 1, 1, 1, 1, 1, 1, 1, 1, 1, 1, 1, 1, 1, 1, 1, 1, 1, 1, 1, 1, 1, 1, 1, 1, 1, 1, 1, 1, 1, 1, 1, 1, 1, 1, 1, 1, 1, 1, 1, 1, 1, 1, 1, 1, 1, 1, 1, 1, 1, 1, 1, 1, 1, 1, 1, 1, 1, 1, 1, 1, 1, 1, 1, 1, 1, 1, 1, 1, 1, 1, 1, 1, 1, 1, 1, 1, 1, 1, 1, 1, 1, 1, 1, 1, 1, 1, 1, 1, 1, 1, 1, 1, 1, 1, 1, 1, 1, 1, 1, 1, 1, 1, 1, 1, 1, 1, 1, 1, 1, 1, 1, 1, 1, 1, 1, 1, 1, 1, 1, 1, 1, 1, 1, 1, 1, 1, 1, 1, 1, 1, 1, 1, 1, 1, 1, 1, 1, 1, 1, 1, 1, 1, 1, 1, 1, 1, 1, 1, 1, 1, 1, 1, 1, 1, 1, 1, 1, 1, 1, 1, 1, 1, 1, 1, 1, 1, 1, 1, 1, 1, 1, 1, 1, 1, 1, 1, 1, 1, 1, 1, 1, 1, 1, 1, 1, 1, 1, 1, 1, 1, 1, 1, 1, 1, 1, 1, 1, 1, 1, 1, 1, 1, 1, 1, 1, 1, 1, 1, 1, 1, 1, 1, 1, 1, 1, 1, 1, 1, 1, 1, 1, 1, 1, 1, 1, 1, 1, 1, 1, 1, 1, 1, 1, 1, 1, 1, 1, 1, 1, 1, 1, 1, 1, 1, 1, 1, 1, 1, 1, 1, 1, 1, 1, 1, 1, 1, 1, 1, 1, 1, 1, 1, 1, 1, 1, 1, 1, 1, 1, 1, 1, 1, 1, 1, 1, 1, 1, 1, 1, 1, 1, 1, 1, 1, 1, 1, 1, 1, 1, 1, 1, 1, 1, 1, 1, 1, 1, 1, 1, 1, 1, 1, 1, 1, 1, 1, 1, 1, 1, 1, 1, 1, 1, 1, 1, 1, 1, 1, 1, 1, 1, 1, 1, 1, 1, 1, 1, 1, 1, 1, 1, 1, 1, 1, 1, 1, 1, 1, 1, 1, 1, 1, 1, 1, 1, 1, 1, 1, 1, 1, 1, 1, 1, 1, 1, 1, 1, 1, 1, 1, 1, 1, 1, 1, 1, 1, 1, 1, 1, 1, 1, 1, 1, 1, 1, 1, 1, 1, 1, 1, 1, 1, 1, 1, 1, 1, 1, 1, 1, 1, 1, 1, 1, 1, 1, 1, 1, 1, 1, 1, 1, 1, 1, 1, 1, 1, 1, 1, 1, 1, 1, 1, 1, 1, 1, 1, 1, 1, 1, 1, 1, 1, 1, 1, 1, 1, 1, 1, 1, 1, 1, 1, 1, 1, 1, 1, 1, 1, 1, 1, 1, 1, 1, 1, 1, 1, 1, 1, 1, 1, 1, 1, 1, 1, 1, 1, 1, 1, 1, 1, 1, 1, 1, 1, 1, 1, 1, 1, 1, 1, 1, 1, 1, 1, 1, 1, 1, 1, 1, 1, 1, 1, 1, 1, 1, 1, 1, 1, 1, 1, 1, 1, 1, 1, 1, 1, 1, 1, 1, 1, 1, 1, 1, 1, 1, 1, 1, 1, 1, 1, 1, 1, 1, 1, 1, 1, 1, 1, 1, 1, 1, 1, 1, 1, 1, 1, 1, 1, 1, 1, 1, 1, 1, 1, 1, 1, 1, 1, 1, 1, 1, 1, 1, 1, 1, 1, 1, 1, 1, 1, 1, 1, 1, 1, 1, 1, 1, 1, 1, 1, 1, 1, 1, 1, 1, 1, 1, 1, 1, 1, 1, 1, 1, 1, 1, 1, 1, 1, 1, 1, 1, 1, 1, 1, 1, 1];
T = [1, 1, 1, 1, 1, 1, 1, 1, 1, 1, 1, 1, 1, 1, 1, 1, 1, 1, 1, 1, 1, 1, 1, 1, 1, 1, 1, 1, 1, 1, 1, 1, 1, 1, 1, 1, 1, 1, 1, 1, 1, 1, 1, 1, 1, 1, 1, 1, 1, 1, 1, 1, 1, 1, 1, 1, 1, 1, 1, 1, 1, 1, 1, 1, 1, 1, 1, 1, 1, 1, 1, 1, 1, 1, 1, 1, 1, 1, 1, 1, 1, 1, 1, 1, 1, 1, 1, 1, 1, 1, 1, 1, 1, 1, 1, 1, 1, 1, 1, 1, 1, 1, 1, 1, 1, 1, 1, 1, 1, 1, 1, 1, 1, 1, 1, 1, 1, 1, 1, 1, 1, 1, 1, 1, 1, 1, 1, 1, 1, 1, 1, 1, 1, 1, 1, 1, 1, 1, 1, 1, 1, 1, 1, 1, 1, 1, 1, 1, 1, 1, 1, 1, 1, 1, 1, 1, 1, 1, 1, 1, 1, 1, 1, 1, 1, 1, 1, 1, 1, 1, 1, 1, 1, 1, 1, 1, 1, 1, 1, 1, 1, 1, 1, 1, 1, 1, 1, 1, 1, 1, 1, 1, 1, 1, 1, 1, 1, 1, 1, 1, 1, 1, 1, 1, 1, 1, 1, 1, 1, 1, 1, 1, 1, 1, 1, 1, 1, 1, 1, 1, 1, 1, 1, 1, 1, 1, 1, 1, 1, 1, 1, 1, 1, 1, 1, 1, 1, 1, 1, 1, 1, 1, 1, 1, 1, 1, 1, 1, 1, 1, 1, 1, 1, 1, 1, 1, 1, 1, 1, 1, 1, 1, 1, 1, 1, 1, 1, 1, 1, 1, 1, 1, 1, 1, 1, 1, 1, 1, 1, 1, 1, 1, 1, 1, 1, 1, 1, 1, 1, 1, 1, 1, 1, 1, 1, 1, 1, 1, 1, 1, 1, 1, 1, 1, 1, 1, 1, 1, 1, 1, 1, 1, 1, 1, 1, 1, 1, 1, 1, 1, 1, 1, 1, 1, 1, 1, 1, 1, 1, 1, 1, 1, 1, 1, 1, 1, 1, 1, 1, 1, 1, 1, 1, 1, 1, 1, 1, 1, 1, 1, 1, 1, 1, 1, 1, 1, 1, 1, 1, 1, 1, 1, 1, 1, 1, 1, 1, 1, 1, 1, 1, 1, 1, 1, 1, 1, 1, 1, 1, 1, 1, 1, 1, 1, 1, 1, 1, 1, 1, 1, 1, 1, 1, 1, 1, 1, 1, 1, 1, 1, 1, 1, 1, 1, 1, 1, 1, 1, 1, 1, 1, 1, 1, 1, 1, 1, 1, 1, 1, 1, 1, 1, 1, 1, 1, 1, 1, 1, 1, 1, 1, 1, 1, 1, 1, 1, 1, 1, 1, 1, 1, 1, 1, 1, 1, 1, 1, 1, 1, 1, 1, 1, 1, 1, 1, 1, 1, 1, 1, 1, 1, 1, 1, 1, 1, 1, 1, 1, 1, 1, 1, 1, 1, 1, 1, 1, 1, 1, 1, 1, 1, 1, 1, 1, 1, 1, 1, 1, 1, 1, 1, 1, 1, 1, 1, 1, 1, 1, 1, 1, 1, 1, 1, 1, 1, 1, 1, 1, 1, 1, 1, 1, 1, 1, 1, 1, 1, 1, 1, 1, 1, 1, 1, 1, 1, 1, 1, 1, 1, 1, 1, 1, 1, 1, 1, 1, 1, 1, 1, 1, 1, 1, 1, 1, 1, 1, 1, 1, 1, 1, 1, 1, 1, 1, 1, 1, 1, 1, 1, 1, 1, 1, 1, 1, 1, 1, 1, 1, 1, 1, 1, 1, 1, 1, 1, 1, 1, 1, 1, 1, 1, 1, 1, 1, 1, 1, 1, 1, 1, 1, 1, 1, 1, 1, 1, 1, 1, 1, 1, 1, 1, 1, 1, 1, 1, 1, 1, 1, 1, 1, 1, 1, 1, 1, 1, 1, 1, 1, 1, 1, 1, 1, 1, 1, 1, 1, 1, 1, 1, 1, 1, 1, 1, 1, 1, 1, 1, 1, 1, 1, 1, 1, 1, 1, 1, 1, 1, 1, 1, 1, 1, 1, 1, 1, 1, 1, 1, 1, 1, 1, 1, 1, 1, 1, 1, 1, 1, 1, 1, 1, 1, 1, 1, 1, 1, 1, 1, 1, 1, 1, 1, 1, 1, 1, 1, 1, 1, 1, 1, 1, 1, 1, 1, 1, 1, 1, 1, 1, 1, 1, 1, 1, 1, 1, 1, 1, 1, 1, 1, 1, 1, 1, 1, 1, 1, 1, 1, 1, 1, 1, 1, 1, 1, 1, 1, 1, 1, 1, 1, 1, 1, 1, 1, 1, 1, 1, 1, 1, 1, 1, 1, 1, 1, 1, 1, 1, 1, 1, 1, 1, 1, 1, 1, 1, 1, 1, 1, 1, 1, 1, 1, 1, 1, 1, 1, 1, 1, 1, 1, 1, 1, 1, 1, 1, 1, 1, 1, 1, 1, 1, 1, 1, 1, 1, 1, 1, 1, 1, 1, 1, 1, 1, 1, 1, 1, 1, 1, 1, 1, 1, 1, 1, 1, 1, 1, 1, 1, 1, 1, 1, 1, 1, 1, 1, 1, 1, 1, 1, 1, 1, 1, 1, 1, 1, 1, 1, 1, 1, 1, 1, 1, 1, 1, 1, 1, 1, 1, 1, 1, 1, 1, 1, 1, 1, 1, 1, 1, 1, 1, 1, 1, 1, 1, 1, 1, 1, 1, 1, 1, 1, 1, 1, 1, 1, 1, 1, 1, 1, 1, 1, 1, 1, 1, 1, 1, 1, 1, 1, 1, 1, 1, 1, 1, 1, 1, 1, 1, 1, 1, 1, 1, 1, 1, 1, 1, 1, 1, 1, 1, 1, 1, 1, 1, 1, 1, 1, 1, 1, 1, 1, 1, 1, 1, 1, 1, 1, 1, 1, 1, 1, 1, 1, 1, 1, 1, 1, 1, 1, 1, 1, 1, 1, 1, 1, 1, 1, 1, 1, 1, 1, 1, 1, 1, 1, 1, 1, 1, 1, 1, 1, 1, 1, 1, 1, 1, 1, 1, 1, 1, 1, 1, 1, 1, 1];
Lower_Bound = [0, 2, 2, 19, 18, 19, 17, 17, 18, 19, 20, 19, 20, 21, 22, 23, 25, 26, 26, 27, 29, 30, 30, 31, 32, 34, 35, 6, 6, 4, 4, 15, 17, 16, 14, 15, 16, 17, 19, 19, 21, 21, 23, 23, 25, 25, 26, 27, 28, 29, 30, 32, 32, 33, 35, 7, 5, 6, 7, 8, 13, 13, 13, 15, 15, 16, 17, 19, 20, 20, 21, 22, 23, 24, 25, 27, 27, 30, 33, 32, 35, 35, 35, 8, 9, 8, 8, 9, 10, 11, 12, 13, 14, 15, 16, 18, 18, 21, 22, 23, 24, 25, 26, 27, 28, 29, 30, 31, 32, 34, 34, 12, 11, 11, 9, 12, 11, 12, 13, 16, 15, 18, 18, 20, 21, 20, 21, 22, 23, 26, 27, 28, 29, 32, 31, 33, 33, 34, 37, 13, 15, 11, 17, 13, 14, 14, 15, 15, 16, 17, 18, 19, 20, 21, 23, 23, 34, 32, 30, 29, 30, 32, 36, 35, 36, 36, 36, 17, 16, 14, 13, 15, 15, 18, 19, 18, 17, 19, 19, 20, 21, 24, 23, 34, 33, 34, 31, 32, 31, 32, 33, 34, 35, 36, 37, 17, 18, 15, 16, 15, 18, 20, 20, 21, 22, 19, 20, 23, 23, 23, 25, 33, 33, 34, 34, 35, 34, 35, 34, 35, 36, 37, 38, 20, 19, 18, 17, 20, 17, 19, 19, 20, 23, 22, 21, 22, 23, 24, 26, 27, 31, 30, 33, 32, 33, 34, 35, 36, 37, 38, 42, 22, 20, 20, 20, 19, 20, 20, 20, 22, 23, 23, 24, 24, 24, 26, 27, 27, 28, 29, 30, 31, 32, 33, 34, 35, 36, 37, 38, 30, 29, 28, 29, 33, 32, 22, 21, 22, 26, 24, 25, 28, 25, 26, 27, 28, 30, 31, 31, 32, 33, 35, 35, 36, 37, 40, 39, 31, 28, 27, 26, 25, 24, 23, 24, 24, 24, 27, 26, 27, 28, 27, 28, 30, 30, 31, 33, 33, 34, 36, 36, 37, 40, 40, 41, 30, 29, 28, 27, 26, 25, 26, 26, 26, 25, 26, 27, 30, 29, 30, 29, 33, 33, 32, 33, 34, 35, 36, 38, 40, 39, 43, 43, 31, 30, 29, 30, 27, 28, 27, 28, 27, 32, 31, 30, 29, 30, 33, 32, 33, 32, 34, 34, 39, 38, 38, 39, 39, 41, 41];
Upper_Bound = [9, 4, 11, 20, 21, 25, 19, 30, 23, 21, 34, 22, 31, 23, 23, 38, 42, 28, 30, 30, 33, 36, 38, 35, 58, 37, 39, 8, 10, 16, 8, 16, 19, 18, 15, 16, 19, 33, 28, 26, 33, 23, 26, 28, 28, 26, 28, 30, 34, 32, 37, 38, 33, 35, 39, 22, 6, 10, 13, 10, 17, 15, 15, 24, 20, 18, 21, 21, 24, 21, 22, 36, 26, 26, 30, 33, 30, 37, 34, 37, 40, 38, 43, 17, 22, 9, 10, 21, 26, 21, 30, 14, 18, 19, 18, 21, 35, 23, 23, 24, 33, 26, 28, 28, 29, 30, 38, 33, 35, 38, 35, 15, 26, 13, 20, 18, 13, 18, 16, 17, 24, 21, 32, 26, 32, 24, 22, 28, 26, 32, 35, 29, 33, 34, 36, 40, 36, 42, 39, 15, 19, 17, 30, 14, 15, 17, 17, 17, 30, 28, 22, 21, 23, 24, 31, 35, 35, 35, 31, 33, 32, 33, 43, 44, 37, 38, 38, 19, 22, 20, 14, 17, 30, 34, 23, 22, 18, 20, 28, 24, 22, 27, 43, 57, 39, 43, 36, 34, 35, 38, 37, 39, 38, 37, 44, 28, 25, 16, 21, 35, 29, 31, 28, 22, 24, 22, 27, 24, 30, 31, 26, 35, 43, 43, 35, 40, 43, 37, 39, 36, 39, 43, 44, 24, 22, 23, 19, 25, 20, 25, 20, 25, 25, 23, 24, 29, 24, 36, 29, 30, 32, 31, 34, 41, 37, 36, 37, 38, 39, 40, 46, 24, 21, 29, 21, 27, 21, 23, 28, 36, 25, 27, 25, 28, 26, 33, 42, 32, 35, 30, 38, 36, 39, 35, 38, 36, 43, 38, 39, 33, 44, 36, 36, 55, 34, 23, 24, 30, 30, 28, 31, 31, 29, 31, 36, 31, 32, 36, 33, 39, 35, 40, 44, 39, 38, 42, 40, 38, 34, 31, 27, 34, 37, 25, 28, 27, 34, 37, 27, 34, 32, 29, 33, 32, 31, 36, 37, 41, 36, 41, 39, 39, 41, 42, 42, 32, 37, 34, 37, 36, 39, 31, 38, 29, 28, 32, 29, 38, 33, 39, 36, 37, 34, 46, 34, 43, 52, 48, 62, 59, 41, 55, 47, 35, 47, 30, 31, 36, 35, 35, 33, 51, 39, 32, 49, 32, 37, 34, 38, 36, 41, 41, 37, 42, 53, 39, 41, 44, 43, 45];
Start = 1;
End = 390;
Time = 45;
